%%
% Autogenerated by /opt/prj/battleships-ai/src/server/solver.py, instance 2 8x8 [4] #1 <h1m1zo>
% Source: https://www.puzzle-battleships.com/?size=2
%%

size = 8;
hints_num = 2;
hints = [| 2, 1 | 3, 7 |];
ships_num = 9;

constr_rows = [2, 3, 3, 0, 6, 0, 4, 1];
constr_cols = [2, 3, 3, 2, 5, 1, 2, 1];

given_ships = [|
<>, <>, <>, <>, 1, |
<>, <>, <>, <>, 1, |
<>, <>, <>, <>, 1, |
<>, <>, <>, <>, 2, |
<>, <>, <>, <>, 2, |
<>, <>, <>, <>, 2, |
<>, <>, <>, <>, 3, |
<>, <>, <>, <>, 3, |
<>, <>, <>, <>, 4  |];

